(declare-fun c_ack!1015 () (_ BitVec 64))
(declare-fun d_ack!1016 () (_ BitVec 64))
(declare-fun a_ack!1017 () (_ BitVec 64))
(declare-fun b_ack!1014 () (_ BitVec 64))
(assert (not (fp.lt ((_ to_fp 11 53) c_ack!1015) ((_ to_fp 11 53) #x0000000000000000))))
(assert (not (fp.geq (fp.abs ((_ to_fp 11 53) d_ack!1016))
             ((_ to_fp 11 53) #x3ff0000000000000))))
(assert (not (fp.eq ((_ to_fp 11 53) c_ack!1015) ((_ to_fp 11 53) #x0000000000000000))))
(assert (not (fp.lt (fp.abs ((_ to_fp 11 53) d_ack!1016))
            ((_ to_fp 11 53) #x3fd0000000000000))))
(assert (fp.gt ((_ to_fp 11 53) c_ack!1015) ((_ to_fp 11 53) #x0000000000000000)))
(assert (not (fp.gt ((_ to_fp 11 53) d_ack!1016) ((_ to_fp 11 53) #x0000000000000000))))
(assert (fp.lt (fp.abs ((_ to_fp 11 53) a_ack!1017))
       ((_ to_fp 11 53) #x4024000000000000)))
(assert (not (fp.lt (fp.abs ((_ to_fp 11 53) b_ack!1014))
            ((_ to_fp 11 53) #x4024000000000000))))

(check-sat)
(exit)
